\ LP format - for model browsing. Use MPS format to capture full model detail.
Minimize
  y
Subject To
 c1: x1 + 19 r1 <= 14
 c2: - y + y1 <= -20
 c3: x2 + 21 r2 <= 14
 c4: - y + y2 <= -22
 c5: x3 + 19 r3 <= 14
 c6: - y + y3 <= -20
 c7: x4 + 2 r4 <= 14
 c8: - y + y4 <= -3
 c9: x1 + 19 r1 - 15 p12 - 15 q12 - x2 <= -1
 c10: - 19 r1 + y1 - 15 p12 + 15 q12 - y2 <= -5
 c11: x1 - 15 p12 + 15 q12 - x2 - 21 r2 >= -14
 c12: y1 - 15 p12 - 15 q12 + 21 r2 - y2 >= -8
 c13: x1 + 19 r1 - 15 p13 - 15 q13 - x3 <= -1
 c14: - 19 r1 + y1 - 15 p13 + 15 q13 - y3 <= -5
 c15: x1 - 15 p13 + 15 q13 - x3 - 19 r3 >= -14
 c16: y1 - 15 p13 - 15 q13 + 19 r3 - y3 >= -10
 c17: x1 + 19 r1 - 15 p14 - 15 q14 - x4 <= -1
 c18: - 19 r1 + y1 - 15 p14 + 15 q14 - y4 <= -5
 c19: x1 - 15 p14 + 15 q14 - x4 - 2 r4 >= -14
 c20: y1 - 15 p14 - 15 q14 + 2 r4 - y4 >= -27
 c21: x2 + 21 r2 - 15 p23 - 15 q23 - x3 <= -1
 c22: - 21 r2 + y2 - 15 p23 + 15 q23 - y3 <= -7
 c23: x2 - 15 p23 + 15 q23 - x3 - 19 r3 >= -14
 c24: y2 - 15 p23 - 15 q23 + 19 r3 - y3 >= -10
 c25: x2 + 21 r2 - 15 p24 - 15 q24 - x4 <= -1
 c26: - 21 r2 + y2 - 15 p24 + 15 q24 - y4 <= -7
 c27: x2 - 15 p24 + 15 q24 - x4 - 2 r4 >= -14
 c28: y2 - 15 p24 - 15 q24 + 2 r4 - y4 >= -27
 c29: x3 + 19 r3 - 15 p34 - 15 q34 - x4 <= -1
 c30: - 19 r3 + y3 - 15 p34 + 15 q34 - y4 <= -5
 c31: x3 - 15 p34 + 15 q34 - x4 - 2 r4 >= -14
 c32: y3 - 15 p34 - 15 q34 + 2 r4 - y4 >= -27
Bounds
 r1 <= 1
 p12 <= 1
 q12 <= 1
 p13 <= 1
 q13 <= 1
 p14 <= 1
 q14 <= 1
 r2 <= 1
 p23 <= 1
 q23 <= 1
 p24 <= 1
 q24 <= 1
 r3 <= 1
 p34 <= 1
 q34 <= 1
 r4 <= 1
Generals
 x1 r1 y1 p12 q12 p13 q13 p14 q14 x2 r2 y2 p23 q23 p24 q24 x3 r3 y3 p34 q34
 x4 r4 y4
End
